(set-logic ALL)
(declare-fun var0 () String)
(assert (str.in_re var0 (re.++ (re.+ (re.+ (str.to_re "00"))) (re.++ (re.union (re.* (str.to_re "11")) (re.* (str.to_re "2"))) (re.++ (re.* (re.+ (str.to_re "3"))) (re.++ (re.* (re.* (str.to_re "44"))) (re.++ (re.* (re.* (str.to_re "5"))) (re.++ (re.* (re.+ (str.to_re "666"))) (re.++ (re.* (re.* (str.to_re "7"))) (re.++ (re.* (re.union (str.to_re "888") (str.to_re "99"))) (re.++ (re.+ (re.+ (str.to_re "aa"))) (re.++ (re.+ (re.+ (str.to_re "bbb"))) (re.++ (re.union (re.union (str.to_re "c") (str.to_re "dd")) (re.union (str.to_re "e") (str.to_re "fff"))) (re.++ (re.union (re.union (str.to_re "ggg") (str.to_re "h")) (re.union (str.to_re "ii") (str.to_re "j"))) (re.++ (re.* (re.+ (str.to_re "kkk"))) (re.++ (re.* (re.+ (str.to_re "l"))) (re.++ (re.+ (re.+ (str.to_re "mmm"))) (re.++ (re.+ (re.+ (str.to_re "nnn"))) (re.++ (re.union (re.+ (str.to_re "ooo")) (re.+ (str.to_re "pp"))) (re.++ (re.union (re.union (str.to_re "q") (str.to_re "rr")) (re.union (str.to_re "sss") (str.to_re "t"))) (re.++ (re.* (re.* (str.to_re "uuu"))) (re.++ (re.* (re.+ (str.to_re "vv"))) (re.++ (re.union (re.union (str.to_re "ww") (str.to_re "xx")) (re.union (str.to_re "y") (str.to_re "zz"))) (re.++ (re.* (re.union (str.to_re "AA") (str.to_re "B"))) (re.++ (re.* (re.* (str.to_re "CC"))) (re.++ (re.* (re.* (str.to_re "DD"))) (re.++ (re.+ (re.union (str.to_re "E") (str.to_re "F"))) (re.++ (re.* (re.+ (str.to_re "G"))) (re.++ (re.union (re.union (str.to_re "HH") (str.to_re "II")) (re.union (str.to_re "J") (str.to_re "KK"))) (re.++ (re.+ (re.* (str.to_re "LL"))) (re.++ (re.* (re.+ (str.to_re "MMM"))) (re.++ (re.* (re.union (str.to_re "N") (str.to_re "O"))) (re.++ (re.* (re.union (str.to_re "P") (str.to_re "Q"))) (re.++ (re.union (re.+ (str.to_re "R")) (re.+ (str.to_re "SS"))) (re.++ (re.union (re.* (str.to_re "T")) (re.* (str.to_re "UU"))) (re.++ (re.union (re.* (str.to_re "VVV")) (re.* (str.to_re "WW"))) (re.++ (re.+ (re.union (str.to_re "XX") (str.to_re "YYY"))) (re.++ (re.union (re.* (str.to_re "Z")) (re.* (str.to_re "!!"))) (re.++ (re.* (re.* (str.to_re """"))) (re.++ (re.union (re.union (str.to_re "##") (str.to_re "$$")) (re.union (str.to_re "%%%") (str.to_re "&&"))) (re.++ (re.+ (re.* (str.to_re "'"))) (re.++ (re.+ (re.+ (str.to_re "((("))) (re.++ (re.* (re.* (str.to_re ")"))) (re.++ (re.union (re.+ (str.to_re "**")) (re.+ (str.to_re "++"))) (re.++ (re.union (re.+ (str.to_re ",,")) (re.+ (str.to_re "---"))) (re.++ (re.union (re.* (str.to_re "...")) (re.* (str.to_re "//"))) (re.++ (re.union (re.union (str.to_re ":::") (str.to_re ";;;")) (re.union (str.to_re "<<<") (str.to_re "=="))) (re.++ (re.+ (re.* (str.to_re ">>"))) (re.++ (re.* (re.+ (str.to_re "??"))) (re.++ (re.* (re.* (str.to_re "@"))) (re.++ (re.* (re.* (str.to_re "[[["))) (re.++ (re.* (re.+ (str.to_re "\\\\"))) (re.++ (re.union (re.* (str.to_re "]")) (re.* (str.to_re "^^^"))) (re.++ (re.* (re.union (str.to_re "_") (str.to_re "``"))) (re.++ (re.* (re.union (str.to_re "{") (str.to_re "|||"))) (re.++ (re.* (re.+ (str.to_re "}}"))) (re.++ (re.* (re.* (str.to_re "~~"))) (re.++ (re.* (re.union (str.to_re "000") (str.to_re "11"))) (re.++ (re.* (re.+ (str.to_re "2"))) (re.++ (re.* (re.* (str.to_re "333"))) (re.++ (re.union (re.union (str.to_re "444") (str.to_re "55")) (re.union (str.to_re "666") (str.to_re "77"))) (re.++ (re.union (re.+ (str.to_re "88")) (re.+ (str.to_re "9"))) (re.++ (re.+ (re.union (str.to_re "a") (str.to_re "bb"))) (re.++ (re.* (re.union (str.to_re "c") (str.to_re "dd"))) (re.++ (re.+ (re.+ (str.to_re "eee"))) (re.++ (re.union (re.* (str.to_re "fff")) (re.* (str.to_re "g"))) (re.++ (re.* (re.union (str.to_re "hh") (str.to_re "ii"))) (re.++ (re.* (re.union (str.to_re "jjj") (str.to_re "kkk"))) (re.++ (re.union (re.+ (str.to_re "ll")) (re.+ (str.to_re "mmm"))) (re.++ (re.* (re.+ (str.to_re "nn"))) (re.++ (re.+ (re.* (str.to_re "oo"))) (re.++ (re.+ (re.+ (str.to_re "pp"))) (re.++ (re.+ (re.union (str.to_re "qqq") (str.to_re "r"))) (re.++ (re.* (re.+ (str.to_re "ss"))) (re.++ (re.* (re.union (str.to_re "ttt") (str.to_re "uu"))) (re.++ (re.union (re.union (str.to_re "vv") (str.to_re "ww")) (re.union (str.to_re "xxx") (str.to_re "y"))) (re.++ (re.union (re.* (str.to_re "z")) (re.* (str.to_re "AAA"))) (re.++ (re.* (re.* (str.to_re "BB"))) (re.++ (re.union (re.+ (str.to_re "CC")) (re.+ (str.to_re "D"))) (re.++ (re.* (re.union (str.to_re "E") (str.to_re "F"))) (re.++ (re.union (re.+ (str.to_re "G")) (re.+ (str.to_re "H"))) (re.++ (re.* (re.union (str.to_re "III") (str.to_re "JJ"))) (re.++ (re.union (re.* (str.to_re "K")) (re.* (str.to_re "L"))) (re.++ (re.union (re.+ (str.to_re "M")) (re.+ (str.to_re "NNN"))) (re.++ (re.* (re.* (str.to_re "OO"))) (re.++ (re.* (re.union (str.to_re "PPP") (str.to_re "QQ"))) (re.++ (re.union (re.+ (str.to_re "R")) (re.+ (str.to_re "SS"))) (re.++ (re.+ (re.+ (str.to_re "T"))) (re.++ (re.+ (re.union (str.to_re "UUU") (str.to_re "V"))) (re.++ (re.* (re.union (str.to_re "WW") (str.to_re "X"))) (re.++ (re.union (re.union (str.to_re "Y") (str.to_re "ZZ")) (re.union (str.to_re "!!!") (str.to_re """"""""))) (re.++ (re.* (re.* (str.to_re "#"))) (re.++ (re.union (re.+ (str.to_re "$$")) (re.+ (str.to_re "%"))) (re.++ (re.union (re.* (str.to_re "&")) (re.* (str.to_re "'''"))) (re.++ (re.* (re.* (str.to_re "(("))) (re.++ (re.* (re.+ (str.to_re ")))"))) (re.++ (re.+ (re.* (str.to_re "*"))) (re.++ (re.+ (re.union (str.to_re "+") (str.to_re ",,"))) (re.++ (re.* (re.union (str.to_re "---") (str.to_re "."))) (re.++ (re.* (re.union (str.to_re "//") (str.to_re "::"))) (re.++ (re.* (re.union (str.to_re ";;") (str.to_re "<"))) (re.++ (re.+ (re.+ (str.to_re "="))) (re.++ (re.+ (re.+ (str.to_re ">"))) (re.++ (re.union (re.* (str.to_re "???")) (re.* (str.to_re "@@"))) (re.++ (re.union (re.union (str.to_re "[[") (str.to_re "\\")) (re.union (str.to_re "]") (str.to_re "^"))) (re.++ (re.+ (re.+ (str.to_re "_"))) (re.++ (re.+ (re.+ (str.to_re "```"))) (re.++ (re.+ (re.* (str.to_re "{{{"))) (re.++ (re.+ (re.+ (str.to_re "|"))) (re.++ (re.union (re.+ (str.to_re "}}}")) (re.+ (str.to_re "~~"))) (re.++ (re.+ (re.union (str.to_re "000") (str.to_re "11"))) (re.++ (re.+ (re.union (str.to_re "2") (str.to_re "33"))) (re.++ (re.+ (re.* (str.to_re "444"))) (re.++ (re.* (re.+ (str.to_re "55"))) (re.++ (re.* (re.union (str.to_re "6") (str.to_re "777"))) (re.++ (re.* (re.* (str.to_re "8"))) (re.++ (re.+ (re.+ (str.to_re "999"))) (re.++ (re.* (re.* (str.to_re "aaa"))) (re.++ (re.union (re.union (str.to_re "b") (str.to_re "c")) (re.union (str.to_re "ddd") (str.to_re "eee"))) (re.++ (re.+ (re.* (str.to_re "ff"))) (re.++ (re.+ (re.* (str.to_re "g"))) (re.++ (re.+ (re.+ (str.to_re "hhh"))) (re.++ (re.* (re.+ (str.to_re "iii"))) (re.++ (re.union (re.union (str.to_re "jjj") (str.to_re "k")) (re.union (str.to_re "l") (str.to_re "m"))) (re.++ (re.+ (re.union (str.to_re "n") (str.to_re "oo"))) (re.++ (re.union (re.+ (str.to_re "ppp")) (re.+ (str.to_re "q"))) (re.++ (re.union (re.union (str.to_re "r") (str.to_re "ss")) (re.union (str.to_re "tt") (str.to_re "uu"))) (re.++ (re.* (re.union (str.to_re "vv") (str.to_re "w"))) (re.++ (re.union (re.union (str.to_re "xxx") (str.to_re "yyy")) (re.union (str.to_re "z") (str.to_re "AA"))) (re.++ (re.+ (re.union (str.to_re "BB") (str.to_re "CC"))) (re.++ (re.+ (re.* (str.to_re "DD"))) (re.++ (re.+ (re.* (str.to_re "EE"))) (re.++ (re.union (re.+ (str.to_re "F")) (re.+ (str.to_re "G"))) (re.++ (re.* (re.union (str.to_re "H") (str.to_re "III"))) (re.++ (re.* (re.+ (str.to_re "J"))) (re.++ (re.union (re.+ (str.to_re "KKK")) (re.+ (str.to_re "LLL"))) (re.++ (re.union (re.union (str.to_re "M") (str.to_re "N")) (re.union (str.to_re "OO") (str.to_re "PPP"))) (re.++ (re.+ (re.+ (str.to_re "Q"))) (re.++ (re.* (re.+ (str.to_re "RRR"))) (re.++ (re.union (re.* (str.to_re "SSS")) (re.* (str.to_re "T"))) (re.++ (re.+ (re.* (str.to_re "U"))) (re.++ (re.+ (re.+ (str.to_re "VV"))) (re.+ (re.+ (str.to_re "WWW")))))))))))))))))))))))))))))))))))))))))))))))))))))))))))))))))))))))))))))))))))))))))))))))))))))))))))))))))))))))))))))))))))))))))))))))))
(check-sat)